NAME : Instance 46
COMMENT : Comment 46
TYPE : TSP
DIMENSION: 30
EDGE_WEIGHT_TYPE : EUC_2D
NODE_COORD_SECTION
  1 718 146
  2 714 1202
  3 1676 1086
  4 1140 1487
  5 640 515
  6 1794 1306
  7 806 1180
  8 1041 1785
  9 576 196
  10 1204 1169
  11 1899 877
  12 1615 411
  13 1766 1458
  14 508 862
  15 466 466
  16 319 497
  17 1900 414
  18 1918 1861
  19 1686 1454
  20 578 1361
  21 553 96
  22 1320 1784
  23 204 955
  24 511 1092
  25 894 1058
  26 146 1415
  27 1268 297
  28 1184 804
  29 1449 421
  30 628 1519
EOF
